NAME: italy.tsp
TYPE: TSP
COMMENT: Italy regional capital 
DIMENSION: 20
EDGE_WEIGHT_TYPE: GEO
DISPLAY_DATA_TYPE: COORD_DISPLAY
NODE_COORD_SECTION
 1 45.73 7.32
 2 45.46 9.19
 3 45.07 7.68
 4 46.06 11.12
 5 45.43 12.33
 6 44.40 8.94
 7 44.49 11.34
 8 45.64 13.77
 9 43.76 11.25
 10 42.35 13.38
 11 43.61 13.51
 12 41.90 12.49
 13 43.11 12.38
 14 40.85 14.26
 15 40.64 15.80 
 16 41.56 14.65
 17 41.11 16.57
 18 38.90 16.59
 19 38.11 13.36
 20 39.22 9.12
 EOF
